NAME: ETSP
COMMENT: Generated by write_TSPLIB (R package TSP)
TYPE: TSP
DIMENSION: 3
EDGE_WEIGHT_TYPE: EUC_2D
NODE_COORD_SECTION
1 5.572673e+01 6.096766e+01
2 5.693415e+01 6.002529e+01
3 5.485992e+01 6.209002e+01
EOF
